\ENCODING=ISO-8859-1
\Problem name: ilog.cplex

Minimize
 obj1: 94215 x1 + 106272 x2 + 99409 x3 + 103490 x4 + 96871 x5 + 93975 x6
       + 100104 x7 + 96337 x8 + 100199 x9 + 100175 x10 + 92715 x11 + 92137 x12
       + 100151 x13 + 100754 x14 + 103644 x15 + 93511 x16 + 101973 x17
       + 97983 x18 + 96504 x19 + 92407 x20 + 108271 x21 + 104044 x22
       + 106520 x23 + 90379 x24 + 98156 x25 + 108368 x26 + 103909 x27
       + 100563 x28 + 101699 x29 + 99427 x30 + 90494 x31 + 108015 x32
       + 91597 x33 + 97541 x34 + 109279 x35 + 101323 x36 + 92255 x37
       + 106870 x38 + 92814 x39 + 100288 x40 + 105420 x41 + 91948 x42
       + 92943 x43 + 92034 x44 + 91046 x45 + 106975 x46 + 101866 x47
       + 90986 x48 + 102251 x49 + 94505 x50 + 92455 x51 + 96987 x52 + 94016 x53
       + 104272 x54 + 94359 x55 + 100181 x56 + 106727 x57 + 102609 x58
       + 101682 x59 + 91319 x60 + 101792 x61 + 96352 x62 + 101101 x63
       + 104030 x64 + 98966 x65 + 102610 x66 + 107730 x67 + 107646 x68
       + 99280 x69 + 90784 x70 + 108395 x71 + 91151 x72 + 94102 x73
       + 107307 x74 + 99657 x75 + 91230 x76 + 91456 x77 + 94623 x78 + 98980 x79
       + 103467 x80 + 100544 x81 + 99934 x82 + 97350 x83 + 100208 x84
       + 105334 x85 + 93796 x86 + 90489 x87 + 93819 x88 + 108547 x89
       + 100591 x90 + 109601 x91 + 92417 x92 + 97988 x93 + 90592 x94
       + 108546 x95 + 100585 x96 + 93460 x97 + 91653 x98 + 105897 x99
       + 93748 x100 + 94373 x101 + 107448 x102 + 107587 x103 + 101590 x104
       + 105697 x105 + 98768 x106 + 108623 x107 + 93263 x108 + 93050 x109
       + 94549 x110 + 90867 x111 + 105140 x112 + 106463 x113 + 90082 x114
       + 97917 x115 + 90467 x116 + 96785 x117 + 101331 x118 + 97846 x119
       + 99496 x120 + 98575 x121 + 109953 x122 + 96955 x123 + 92164 x124
       + 107129 x125 + 107701 x126 + 99021 x127 + 93928 x128 + 92591 x129
       + 109727 x130 + 109835 x131 + 108410 x132 + 95087 x133 + 90853 x134
       + 100328 x135 + 99693 x136 + 96030 x137 + 102976 x138 + 101304 x139
       + 100877 x140 + 97779 x141 + 100941 x142 + 90540 x143 + 109696 x144
       + 105113 x145 + 105857 x146 + 93481 x147 + 102518 x148 + 93536 x149
       + 92495 x150 + 97381 x151 + 97956 x152 + 94264 x153 + 108019 x154
       + 96437 x155 + 107305 x156 + 101251 x157 + 105610 x158 + 103725 x159
       + 100584 x160 + 91728 x161 + 108403 x162 + 104716 x163 + 94182 x164
       + 108438 x165 + 106705 x166 + 106654 x167 + 108923 x168 + 99157 x169
       + 94577 x170 + 98311 x171 + 95834 x172 + 107041 x173 + 90668 x174
       + 95367 x175 + 100983 x176 + 93971 x177 + 102551 x178 + 108156 x179
       + 100455 x180 + 101857 x181 + 98332 x182 + 99050 x183 + 91222 x184
       + 99735 x185 + 93086 x186 + 92312 x187 + 92611 x188 + 108820 x189
       + 103567 x190 + 93167 x191 + 105288 x192 + 101263 x193 + 98806 x194
       + 104918 x195 + 91897 x196 + 101836 x197 + 103848 x198 + 109377 x199
       + 98476 x200 + 108542 x201 + 109577 x202 + 105501 x203 + 97556 x204
       + 105141 x205 + 97977 x206 + 98846 x207 + 93614 x208 + 96830 x209
       + 100623 x210 + 93773 x211 + 108547 x212 + 90634 x213 + 103095 x214
       + 90996 x215 + 92518 x216 + 98009 x217 + 93464 x218 + 99314 x219
       + 93811 x220 + 98774 x221 + 109144 x222 + 92286 x223 + 90262 x224
       + 92670 x225 + 103116 x226 + 98113 x227 + 94387 x228 + 97668 x229
       + 107905 x230 + 104138 x231 + 94515 x232 + 92644 x233 + 103680 x234
       + 106137 x235 + 104997 x236 + 106077 x237 + 95454 x238 + 96996 x239
       + 90037 x240 + 97706 x241 + 91031 x242 + 91849 x243 + 102441 x244
       + 93386 x245 + 90826 x246 + 107051 x247 + 94674 x248 + 95209 x249
       + 95752 x250 + 106887 x251 + 90329 x252 + 107939 x253 + 96689 x254
       + 102445 x255 + 91289 x256 + 106351 x257 + 98601 x258 + 105751 x259
       + 102904 x260 + 94292 x261 + 102490 x262 + 104926 x263 + 96792 x264
       + 101428 x265 + 108743 x266 + 93380 x267 + 102838 x268 + 96119 x269
       + 93402 x270 + 103651 x271 + 107617 x272 + 109873 x273 + 109230 x274
       + 101395 x275 + 97154 x276 + 106573 x277 + 109400 x278 + 90496 x279
       + 98186 x280 + 107889 x281 + 103217 x282 + 106389 x283 + 103973 x284
       + 105298 x285 + 90491 x286 + 91421 x287 + 98253 x288 + 108614 x289
       + 104005 x290 + 93443 x291 + 94056 x292 + 101144 x293 + 97995 x294
       + 106823 x295 + 102878 x296 + 92395 x297 + 94615 x298 + 103656 x299
       + 238750 x300 + 212327 x301 + 191648 x302 + 208747 x303 + 199765 x304
       + 207092 x305 + 188279 x306 + 183215 x307 + 205637 x308 + 201433 x309
       + 199799 x310 + 191085 x311 + 203220 x312 + 196828 x313 + 202193 x314
       + 197774 x315 + 212063 x316 + 213371 x317 + 191922 x318 + 208798 x319
       + 214814 x320 + 209321 x321 + 214393 x322 + 188120 x323 + 199930 x324
       + 219082 x325 + 194467 x326 + 205226 x327 + 183065 x328 + 182092 x329
       + 219095 x330 + 197651 x331 + 217574 x332 + 207021 x333 + 218793 x334
       + 219463 x335 + 218054 x336 + 201342 x337 + 215044 x338 + 183764 x339
       + 218076 x340 + 215751 x341 + 204766 x342 + 218536 x343 + 184215 x344
       + 186076 x345 + 180876 x346 + 200223 x347 + 193246 x348 + 202230 x349
       + 219571 x350 + 208202 x351 + 207816 x352 + 194418 x353 + 200289 x354
       + 195872 x355 + 218154 x356 + 201252 x357 + 203427 x358 + 180326 x359
       + 43171 x360
Subject To
 c1:   x5 + x22 - x40 + x43 - x49 + x59  = 0
 c2:   x65 + x82 - x100 + x103 - x109 + x119  = 0
 c3:   x125 + x142 - x160 + x163 - x169 + x179  = 0
 c4:   x185 + x202 - x220 + x223 - x229 + x239  = -1
 c5:   x245 + x262 - x280 + x283 - x289 + x299  = 0
 c6:   x7 - x12 - x23 + x28 - x30 + x54 + x58 - x59  = 0
 c7:   x67 - x72 - x83 + x88 - x90 + x114 + x118 - x119  = 0
 c8:   x127 - x132 - x143 + x148 - x150 + x174 + x178 - x179  = 0
 c9:   x187 - x192 - x203 + x208 - x210 + x234 + x238 - x239  = 0
 c10:  x247 - x252 - x263 + x268 - x270 + x294 + x298 - x299  = 0
 c11:  x2 - x14 - x16 - x18 + x26 + x37 - x42 - x45 + x49  = 0
 c12:  x62 - x74 - x76 - x78 + x86 + x97 - x102 - x105 + x109  = 0
 c13:  x122 - x134 - x136 - x138 + x146 + x157 - x162 - x165 + x169  = 0
 c14:  x182 - x194 - x196 - x198 + x206 + x217 - x222 - x225 + x229  = 0
 c15:  x242 - x254 - x256 - x258 + x266 + x277 - x282 - x285 + x289  = 1
 c16:  x27 + x48 + x51 + x52 - x57  = 0
 c17:  x87 + x108 + x111 + x112 - x117  = 0
 c18:  x147 + x168 + x171 + x172 - x177  = 0
 c19:  x207 + x228 + x231 + x232 - x237  = 0
 c20:  x267 + x288 + x291 + x292 - x297  = 0
 c21:  x13 + x14 - x15 + x34 - x38 + x50 - x56  = 0
 c22:  x73 + x74 - x75 + x94 - x98 + x110 - x116  = 0
 c23:  x133 + x134 - x135 + x154 - x158 + x170 - x176  = 1
 c24:  x193 + x194 - x195 + x214 - x218 + x230 - x236  = 0
 c25:  x253 + x254 - x255 + x274 - x278 + x290 - x296  = 0
 c26:  - x10 - x11 + x16 - x24 - x27 - x29 - x34 - x37 + x44 - x58 + x60  = 1
 c27:  - x70 - x71 + x76 - x84 - x87 - x89 - x94 - x97 + x104 - x118 + x120
        = -1
 c28:  - x130 - x131 + x136 - x144 - x147 - x149 - x154 - x157 + x164 - x178
       + x180  = 0
 c29:  - x190 - x191 + x196 - x204 - x207 - x209 - x214 - x217 + x224 - x238
       + x240  = 0
 c30:  - x250 - x251 + x256 - x264 - x267 - x269 - x274 - x277 + x284 - x298
       + x300  = 0
 c31:  x1 - x7 - x8 + x12 + x17 + x29 + x31 - x36 + x40 - x53  = 0
 c32:  x61 - x67 - x68 + x72 + x77 + x89 + x91 - x96 + x100 - x113  = 0
 c33:  x121 - x127 - x128 + x132 + x137 + x149 + x151 - x156 + x160 - x173  = 0
 c34:  x181 - x187 - x188 + x192 + x197 + x209 + x211 - x216 + x220 - x233  = 0
 c35:  x241 - x247 - x248 + x252 + x257 + x269 + x271 - x276 + x280 - x293  = 0
 c36:  - x1 - x19 + x20 + x23 + x35 - x43 + x57  = 0
 c37:  - x61 - x79 + x80 + x83 + x95 - x103 + x117  = 0
 c38:  - x121 - x139 + x140 + x143 + x155 - x163 + x177  = -1
 c39:  - x181 - x199 + x200 + x203 + x215 - x223 + x237  = 0
 c40:  - x241 - x259 + x260 + x263 + x275 - x283 + x297  = 0
 c41:  - x3 + x10 - x25 - x31 - x35 - x52 + x55 + x56  = 0
 c42:  - x63 + x70 - x85 - x91 - x95 - x112 + x115 + x116  = 0
 c43:  - x123 + x130 - x145 - x151 - x155 - x172 + x175 + x176  = 0
 c44:  - x183 + x190 - x205 - x211 - x215 - x232 + x235 + x236  = 0
 c45:  - x243 + x250 - x265 - x271 - x275 - x292 + x295 + x296  = 0
 c46:  x9 + x21 + x25 - x46 + x53 - x54 - x55 - x60  = 0
 c47:  x69 + x81 + x85 - x106 + x113 - x114 - x115 - x120  = 0
 c48:  x129 + x141 + x145 - x166 + x173 - x174 - x175 - x180  = 0
 c49:  x189 + x201 + x205 - x226 + x233 - x234 - x235 - x240  = 0
 c50:  x249 + x261 + x265 - x286 + x293 - x294 - x295 - x300  = 0
 c51:  x3 + x4 - x13 + x15 - x17 + x18 - x22 + x24 - x33 - x44 + x47  = 0
 c52:  x63 + x64 - x73 + x75 - x77 + x78 - x82 + x84 - x93 - x104 + x107  = 0
 c53:  x123 + x124 - x133 + x135 - x137 + x138 - x142 + x144 - x153 - x164
       + x167  = 0
 c54:  x183 + x184 - x193 + x195 - x197 + x198 - x202 + x204 - x213 - x224
       + x227  = 1
 c55:  x243 + x244 - x253 + x255 - x257 + x258 - x262 + x264 - x273 - x284
       + x287  = 0
 c56:  - x9 + x36 + x42 - x47  = -1
 c57:  - x69 + x96 + x102 - x107  = 0
 c58:  - x129 + x156 + x162 - x167  = 0
 c59:  - x189 + x216 + x222 - x227  = 0
 c60:  - x249 + x276 + x282 - x287  = 0
 c61:  - x5 - x20 - x21 - x32 - x39  = 0
 c62:  - x65 - x80 - x81 - x92 - x99  = 0
 c63:  - x125 - x140 - x141 - x152 - x159  = 0
 c64:  - x185 - x200 - x201 - x212 - x219  = 0
 c65:  - x245 - x260 - x261 - x272 - x279  = 0
 c66:  x6 + x19 - x26 - x28 + x30 + x32 + x33 - x41 + x45 - x51  = 0
 c67:  x66 + x79 - x86 - x88 + x90 + x92 + x93 - x101 + x105 - x111  = 1
 c68:  x126 + x139 - x146 - x148 + x150 + x152 + x153 - x161 + x165 - x171  = 0
 c69:  x186 + x199 - x206 - x208 + x210 + x212 + x213 - x221 + x225 - x231  = 0
 c70:  x246 + x259 - x266 - x268 + x270 + x272 + x273 - x281 + x285 - x291  = 0
 c71:  - x2 - x4 - x6 + x8 + x11 + x38 + x39 + x41 + x46 - x48 - x50  = 0
 c72:  - x62 - x64 - x66 + x68 + x71 + x98 + x99 + x101 + x106 - x108 - x110
        = 0
 c73:  - x122 - x124 - x126 + x128 + x131 + x158 + x159 + x161 + x166 - x168
       - x170  = 0
 c74:  - x182 - x184 - x186 + x188 + x191 + x218 + x219 + x221 + x226 - x228
       - x230  = 0
 c75:  - x242 - x244 - x246 + x248 + x251 + x278 + x279 + x281 + x286 - x288
       - x290  = -1
 c76:  4 x1 + 4 x61 + 4 x121 + 4 x181 + 4 x241 - 2 x301 <= 0
 c77:  4 x2 + 4 x62 + 4 x122 + 4 x182 + 4 x242 - 2 x302 <= 0
 c78:  4 x3 + 4 x63 + 4 x123 + 4 x183 + 4 x243 - 2 x303 <= 0
 c79:  4 x4 + 4 x64 + 4 x124 + 4 x184 + 4 x244 - 2 x304 <= 0
 c80:  4 x5 + 4 x65 + 4 x125 + 4 x185 + 4 x245 - 2 x305 <= 0
 c81:  4 x6 + 4 x66 + 4 x126 + 4 x186 + 4 x246 - 2 x306 <= 0
 c82:  4 x7 + 4 x67 + 4 x127 + 4 x187 + 4 x247 - 2 x307 <= 0
 c83:  4 x8 + 4 x68 + 4 x128 + 4 x188 + 4 x248 - 2 x308 <= 0
 c84:  4 x9 + 4 x69 + 4 x129 + 4 x189 + 4 x249 - 2 x309 <= 0
 c85:  4 x10 + 4 x70 + 4 x130 + 4 x190 + 4 x250 - 2 x310 <= 0
 c86:  4 x11 + 4 x71 + 4 x131 + 4 x191 + 4 x251 - 2 x311 <= 0
 c87:  4 x12 + 4 x72 + 4 x132 + 4 x192 + 4 x252 - 2 x312 <= 0
 c88:  4 x13 + 4 x73 + 4 x133 + 4 x193 + 4 x253 - 2 x313 <= 0
 c89:  4 x14 + 4 x74 + 4 x134 + 4 x194 + 4 x254 - 2 x314 <= 0
 c90:  4 x15 + 4 x75 + 4 x135 + 4 x195 + 4 x255 - 2 x315 <= 0
 c91:  4 x16 + 4 x76 + 4 x136 + 4 x196 + 4 x256 - 2 x316 <= 0
 c92:  4 x17 + 4 x77 + 4 x137 + 4 x197 + 4 x257 - 2 x317 <= 0
 c93:  4 x18 + 4 x78 + 4 x138 + 4 x198 + 4 x258 - 2 x318 <= 0
 c94:  4 x19 + 4 x79 + 4 x139 + 4 x199 + 4 x259 - 2 x319 <= 0
 c95:  4 x20 + 4 x80 + 4 x140 + 4 x200 + 4 x260 - 2 x320 <= 0
 c96:  4 x21 + 4 x81 + 4 x141 + 4 x201 + 4 x261 - 2 x321 <= 0
 c97:  4 x22 + 4 x82 + 4 x142 + 4 x202 + 4 x262 - 2 x322 <= 0
 c98:  4 x23 + 4 x83 + 4 x143 + 4 x203 + 4 x263 - 2 x323 <= 0
 c99:  4 x24 + 4 x84 + 4 x144 + 4 x204 + 4 x264 - 2 x324 <= 0
 c100: 4 x25 + 4 x85 + 4 x145 + 4 x205 + 4 x265 - 2 x325 <= 0
 c101: 4 x26 + 4 x86 + 4 x146 + 4 x206 + 4 x266 - 2 x326 <= 0
 c102: 4 x27 + 4 x87 + 4 x147 + 4 x207 + 4 x267 - 2 x327 <= 0
 c103: 4 x28 + 4 x88 + 4 x148 + 4 x208 + 4 x268 - 2 x328 <= 0
 c104: 4 x29 + 4 x89 + 4 x149 + 4 x209 + 4 x269 - 2 x329 <= 0
 c105: 4 x30 + 4 x90 + 4 x150 + 4 x210 + 4 x270 - 2 x330 <= 0
 c106: 4 x31 + 4 x91 + 4 x151 + 4 x211 + 4 x271 - 2 x331 <= 0
 c107: 4 x32 + 4 x92 + 4 x152 + 4 x212 + 4 x272 - 2 x332 <= 0
 c108: 4 x33 + 4 x93 + 4 x153 + 4 x213 + 4 x273 - 2 x333 <= 0
 c109: 4 x34 + 4 x94 + 4 x154 + 4 x214 + 4 x274 - 2 x334 <= 0
 c110: 4 x35 + 4 x95 + 4 x155 + 4 x215 + 4 x275 - 2 x335 <= 0
 c111: 4 x36 + 4 x96 + 4 x156 + 4 x216 + 4 x276 - 2 x336 <= 0
 c112: 4 x37 + 4 x97 + 4 x157 + 4 x217 + 4 x277 - 2 x337 <= 0
 c113: 4 x38 + 4 x98 + 4 x158 + 4 x218 + 4 x278 - 2 x338 <= 0
 c114: 4 x39 + 4 x99 + 4 x159 + 4 x219 + 4 x279 - 2 x339 <= 0
 c115: 4 x40 + 4 x100 + 4 x160 + 4 x220 + 4 x280 - 2 x340 <= 0
 c116: 4 x41 + 4 x101 + 4 x161 + 4 x221 + 4 x281 - 2 x341 <= 0
 c117: 4 x42 + 4 x102 + 4 x162 + 4 x222 + 4 x282 - 2 x342 <= 0
 c118: 4 x43 + 4 x103 + 4 x163 + 4 x223 + 4 x283 - 2 x343 <= 0
 c119: 4 x44 + 4 x104 + 4 x164 + 4 x224 + 4 x284 - 2 x344 <= 0
 c120: 4 x45 + 4 x105 + 4 x165 + 4 x225 + 4 x285 - 2 x345 <= 0
 c121: 4 x46 + 4 x106 + 4 x166 + 4 x226 + 4 x286 - 2 x346 <= 0
 c122: 4 x47 + 4 x107 + 4 x167 + 4 x227 + 4 x287 - 2 x347 <= 0
 c123: 4 x48 + 4 x108 + 4 x168 + 4 x228 + 4 x288 - 2 x348 <= 0
 c124: 4 x49 + 4 x109 + 4 x169 + 4 x229 + 4 x289 - 2 x349 <= 0
 c125: 4 x50 + 4 x110 + 4 x170 + 4 x230 + 4 x290 - 2 x350 <= 0
 c126: 4 x51 + 4 x111 + 4 x171 + 4 x231 + 4 x291 - 2 x351 <= 0
 c127: 4 x52 + 4 x112 + 4 x172 + 4 x232 + 4 x292 - 2 x352 <= 0
 c128: 4 x53 + 4 x113 + 4 x173 + 4 x233 + 4 x293 - 2 x353 <= 0
 c129: 4 x54 + 4 x114 + 4 x174 + 4 x234 + 4 x294 - 2 x354 <= 0
 c130: 4 x55 + 4 x115 + 4 x175 + 4 x235 + 4 x295 - 2 x355 <= 0
 c131: 4 x56 + 4 x116 + 4 x176 + 4 x236 + 4 x296 - 2 x356 <= 0
 c132: 4 x57 + 4 x117 + 4 x177 + 4 x237 + 4 x297 - 2 x357 <= 0
 c133: 4 x58 + 4 x118 + 4 x178 + 4 x238 + 4 x298 - 2 x358 <= 0
 c134: 4 x59 + 4 x119 + 4 x179 + 4 x239 + 4 x299 - 2 x359 <= 0
 c135: 4 x60 + 4 x120 + 4 x180 + 4 x240 + 4 x300 - 2 x360 <= 0
Bounds
 0 <= x1 <= 1
 0 <= x2 <= 1
 0 <= x3 <= 1
 0 <= x4 <= 1
 0 <= x5 <= 1
 0 <= x6 <= 1
 0 <= x7 <= 1
 0 <= x8 <= 1
 0 <= x9 <= 1
 0 <= x10 <= 1
 0 <= x11 <= 1
 0 <= x12 <= 1
 0 <= x13 <= 1
 0 <= x14 <= 1
 0 <= x15 <= 1
 0 <= x16 <= 1
 0 <= x17 <= 1
 0 <= x18 <= 1
 0 <= x19 <= 1
 0 <= x20 <= 1
 0 <= x21 <= 1
 0 <= x22 <= 1
 0 <= x23 <= 1
 0 <= x24 <= 1
 0 <= x25 <= 1
 0 <= x26 <= 1
 0 <= x27 <= 1
 0 <= x28 <= 1
 0 <= x29 <= 1
 0 <= x30 <= 1
 0 <= x31 <= 1
 0 <= x32 <= 1
 0 <= x33 <= 1
 0 <= x34 <= 1
 0 <= x35 <= 1
 0 <= x36 <= 1
 0 <= x37 <= 1
 0 <= x38 <= 1
 0 <= x39 <= 1
 0 <= x40 <= 1
 0 <= x41 <= 1
 0 <= x42 <= 1
 0 <= x43 <= 1
 0 <= x44 <= 1
 0 <= x45 <= 1
 0 <= x46 <= 1
 0 <= x47 <= 1
 0 <= x48 <= 1
 0 <= x49 <= 1
 0 <= x50 <= 1
 0 <= x51 <= 1
 0 <= x52 <= 1
 0 <= x53 <= 1
 0 <= x54 <= 1
 0 <= x55 <= 1
 0 <= x56 <= 1
 0 <= x57 <= 1
 0 <= x58 <= 1
 0 <= x59 <= 1
 0 <= x60 <= 1
 0 <= x61 <= 1
 0 <= x62 <= 1
 0 <= x63 <= 1
 0 <= x64 <= 1
 0 <= x65 <= 1
 0 <= x66 <= 1
 0 <= x67 <= 1
 0 <= x68 <= 1
 0 <= x69 <= 1
 0 <= x70 <= 1
 0 <= x71 <= 1
 0 <= x72 <= 1
 0 <= x73 <= 1
 0 <= x74 <= 1
 0 <= x75 <= 1
 0 <= x76 <= 1
 0 <= x77 <= 1
 0 <= x78 <= 1
 0 <= x79 <= 1
 0 <= x80 <= 1
 0 <= x81 <= 1
 0 <= x82 <= 1
 0 <= x83 <= 1
 0 <= x84 <= 1
 0 <= x85 <= 1
 0 <= x86 <= 1
 0 <= x87 <= 1
 0 <= x88 <= 1
 0 <= x89 <= 1
 0 <= x90 <= 1
 0 <= x91 <= 1
 0 <= x92 <= 1
 0 <= x93 <= 1
 0 <= x94 <= 1
 0 <= x95 <= 1
 0 <= x96 <= 1
 0 <= x97 <= 1
 0 <= x98 <= 1
 0 <= x99 <= 1
 0 <= x100 <= 1
 0 <= x101 <= 1
 0 <= x102 <= 1
 0 <= x103 <= 1
 0 <= x104 <= 1
 0 <= x105 <= 1
 0 <= x106 <= 1
 0 <= x107 <= 1
 0 <= x108 <= 1
 0 <= x109 <= 1
 0 <= x110 <= 1
 0 <= x111 <= 1
 0 <= x112 <= 1
 0 <= x113 <= 1
 0 <= x114 <= 1
 0 <= x115 <= 1
 0 <= x116 <= 1
 0 <= x117 <= 1
 0 <= x118 <= 1
 0 <= x119 <= 1
 0 <= x120 <= 1
 0 <= x121 <= 1
 0 <= x122 <= 1
 0 <= x123 <= 1
 0 <= x124 <= 1
 0 <= x125 <= 1
 0 <= x126 <= 1
 0 <= x127 <= 1
 0 <= x128 <= 1
 0 <= x129 <= 1
 0 <= x130 <= 1
 0 <= x131 <= 1
 0 <= x132 <= 1
 0 <= x133 <= 1
 0 <= x134 <= 1
 0 <= x135 <= 1
 0 <= x136 <= 1
 0 <= x137 <= 1
 0 <= x138 <= 1
 0 <= x139 <= 1
 0 <= x140 <= 1
 0 <= x141 <= 1
 0 <= x142 <= 1
 0 <= x143 <= 1
 0 <= x144 <= 1
 0 <= x145 <= 1
 0 <= x146 <= 1
 0 <= x147 <= 1
 0 <= x148 <= 1
 0 <= x149 <= 1
 0 <= x150 <= 1
 0 <= x151 <= 1
 0 <= x152 <= 1
 0 <= x153 <= 1
 0 <= x154 <= 1
 0 <= x155 <= 1
 0 <= x156 <= 1
 0 <= x157 <= 1
 0 <= x158 <= 1
 0 <= x159 <= 1
 0 <= x160 <= 1
 0 <= x161 <= 1
 0 <= x162 <= 1
 0 <= x163 <= 1
 0 <= x164 <= 1
 0 <= x165 <= 1
 0 <= x166 <= 1
 0 <= x167 <= 1
 0 <= x168 <= 1
 0 <= x169 <= 1
 0 <= x170 <= 1
 0 <= x171 <= 1
 0 <= x172 <= 1
 0 <= x173 <= 1
 0 <= x174 <= 1
 0 <= x175 <= 1
 0 <= x176 <= 1
 0 <= x177 <= 1
 0 <= x178 <= 1
 0 <= x179 <= 1
 0 <= x180 <= 1
 0 <= x181 <= 1
 0 <= x182 <= 1
 0 <= x183 <= 1
 0 <= x184 <= 1
 0 <= x185 <= 1
 0 <= x186 <= 1
 0 <= x187 <= 1
 0 <= x188 <= 1
 0 <= x189 <= 1
 0 <= x190 <= 1
 0 <= x191 <= 1
 0 <= x192 <= 1
 0 <= x193 <= 1
 0 <= x194 <= 1
 0 <= x195 <= 1
 0 <= x196 <= 1
 0 <= x197 <= 1
 0 <= x198 <= 1
 0 <= x199 <= 1
 0 <= x200 <= 1
 0 <= x201 <= 1
 0 <= x202 <= 1
 0 <= x203 <= 1
 0 <= x204 <= 1
 0 <= x205 <= 1
 0 <= x206 <= 1
 0 <= x207 <= 1
 0 <= x208 <= 1
 0 <= x209 <= 1
 0 <= x210 <= 1
 0 <= x211 <= 1
 0 <= x212 <= 1
 0 <= x213 <= 1
 0 <= x214 <= 1
 0 <= x215 <= 1
 0 <= x216 <= 1
 0 <= x217 <= 1
 0 <= x218 <= 1
 0 <= x219 <= 1
 0 <= x220 <= 1
 0 <= x221 <= 1
 0 <= x222 <= 1
 0 <= x223 <= 1
 0 <= x224 <= 1
 0 <= x225 <= 1
 0 <= x226 <= 1
 0 <= x227 <= 1
 0 <= x228 <= 1
 0 <= x229 <= 1
 0 <= x230 <= 1
 0 <= x231 <= 1
 0 <= x232 <= 1
 0 <= x233 <= 1
 0 <= x234 <= 1
 0 <= x235 <= 1
 0 <= x236 <= 1
 0 <= x237 <= 1
 0 <= x238 <= 1
 0 <= x239 <= 1
 0 <= x240 <= 1
 0 <= x241 <= 1
 0 <= x242 <= 1
 0 <= x243 <= 1
 0 <= x244 <= 1
 0 <= x245 <= 1
 0 <= x246 <= 1
 0 <= x247 <= 1
 0 <= x248 <= 1
 0 <= x249 <= 1
 0 <= x250 <= 1
 0 <= x251 <= 1
 0 <= x252 <= 1
 0 <= x253 <= 1
 0 <= x254 <= 1
 0 <= x255 <= 1
 0 <= x256 <= 1
 0 <= x257 <= 1
 0 <= x258 <= 1
 0 <= x259 <= 1
 0 <= x260 <= 1
 0 <= x261 <= 1
 0 <= x262 <= 1
 0 <= x263 <= 1
 0 <= x264 <= 1
 0 <= x265 <= 1
 0 <= x266 <= 1
 0 <= x267 <= 1
 0 <= x268 <= 1
 0 <= x269 <= 1
 0 <= x270 <= 1
 0 <= x271 <= 1
 0 <= x272 <= 1
 0 <= x273 <= 1
 0 <= x274 <= 1
 0 <= x275 <= 1
 0 <= x276 <= 1
 0 <= x277 <= 1
 0 <= x278 <= 1
 0 <= x279 <= 1
 0 <= x280 <= 1
 0 <= x281 <= 1
 0 <= x282 <= 1
 0 <= x283 <= 1
 0 <= x284 <= 1
 0 <= x285 <= 1
 0 <= x286 <= 1
 0 <= x287 <= 1
 0 <= x288 <= 1
 0 <= x289 <= 1
 0 <= x290 <= 1
 0 <= x291 <= 1
 0 <= x292 <= 1
 0 <= x293 <= 1
 0 <= x294 <= 1
 0 <= x295 <= 1
 0 <= x296 <= 1
 0 <= x297 <= 1
 0 <= x298 <= 1
 0 <= x299 <= 1
 0 <= x300 <= 1
 0 <= x301 <= 1
 0 <= x302 <= 1
 0 <= x303 <= 1
 0 <= x304 <= 1
 0 <= x305 <= 1
 0 <= x306 <= 1
 0 <= x307 <= 1
 0 <= x308 <= 1
 0 <= x309 <= 1
 0 <= x310 <= 1
 0 <= x311 <= 1
 0 <= x312 <= 1
 0 <= x313 <= 1
 0 <= x314 <= 1
 0 <= x315 <= 1
 0 <= x316 <= 1
 0 <= x317 <= 1
 0 <= x318 <= 1
 0 <= x319 <= 1
 0 <= x320 <= 1
 0 <= x321 <= 1
 0 <= x322 <= 1
 0 <= x323 <= 1
 0 <= x324 <= 1
 0 <= x325 <= 1
 0 <= x326 <= 1
 0 <= x327 <= 1
 0 <= x328 <= 1
 0 <= x329 <= 1
 0 <= x330 <= 1
 0 <= x331 <= 1
 0 <= x332 <= 1
 0 <= x333 <= 1
 0 <= x334 <= 1
 0 <= x335 <= 1
 0 <= x336 <= 1
 0 <= x337 <= 1
 0 <= x338 <= 1
 0 <= x339 <= 1
 0 <= x340 <= 1
 0 <= x341 <= 1
 0 <= x342 <= 1
 0 <= x343 <= 1
 0 <= x344 <= 1
 0 <= x345 <= 1
 0 <= x346 <= 1
 0 <= x347 <= 1
 0 <= x348 <= 1
 0 <= x349 <= 1
 0 <= x350 <= 1
 0 <= x351 <= 1
 0 <= x352 <= 1
 0 <= x353 <= 1
 0 <= x354 <= 1
 0 <= x355 <= 1
 0 <= x356 <= 1
 0 <= x357 <= 1
 0 <= x358 <= 1
 0 <= x359 <= 1
 0 <= x360 <= 1
Binaries
 x301  x302  x303  x304  x305  x306  x307  x308  x309  x310  x311  x312  x313 
 x314  x315  x316  x317  x318  x319  x320  x321  x322  x323  x324  x325  x326 
 x327  x328  x329  x330  x331  x332  x333  x334  x335  x336  x337  x338  x339 
 x340  x341  x342  x343  x344  x345  x346  x347  x348  x349  x350  x351  x352 
 x353  x354  x355  x356  x357  x358  x359  x360 
End
